152 128617
1 35 36 34 37 45 80 120 133 145 146 134 135 136 119 112 111 104 83 63 64 59 58 42 43 57 65 66 55 24 25 26 27 28 38 29 30 31 32 33 48 76 49 50 74 75 73 51 47 46 52 53 72 71 70 69 54 90 99 98 97 79 91 96 115 116 78 92 77 93 94 95 122 129 130 148 149 147 131 132 121 144 137 118 138 143 142 141 139 140 117 86 62 61 60 41 19 10 21 20 22 23 39 44 56 68 67 81 89 100 113 114 124 125 126 152 150 151 127 128 123 101 102 103 88 82 87 105 106 107 110 109 108 85 84 40 18 17 9 8 7 11 6 12 5 13 4 14 3 15 2 16 
